011000010110110100101011100010010100000010000101100110110101001101011111011101011010011001000001001100111101100011110101110001110011111000010100011111010110010000011011100101010111101001000001011011001010001110100100100010110000111000010011111111010101011111000011100100001001110001100010000011100110100101101011110101110101000110010110101001001101010100010101101000100111100001011011101011000110010111001101101100001000101101000110110110111111100000010101111111100110100111011001110101101000111101110111010001010101000111010110001011011010010001100111010011000111110001110100110111010100110110110110101000010011110101100100000010100010001010010000110000110110001110001000100110101101101101101001010000010001100010110101100110011010010001010100010000000100110100011110001010010110000010111101100110111101111010010110001001010001001001100001010101111010101100111001110000011101110000111000101010111111100110101001111001101100101111101000010101011010100010111111001100001101101000010011000000011100100011100000010110100111111010001010000011110111100001101011100001110100100001100100000010111111000100111111000101011011011111100100100110011101100011100010101111000100100110111000011011000101111000010101110000110000011001100101110001100001100001101101100000110100001000000001010001101010101001101011110111111000001111000101101111111011100010100100110110100101010111110011010101010001100110100001100101010011110000100011001000001010011111000110